1697409
0	23	54636
23	19	232009
19	18	59143
18	21	8375
21	10	10310
10	15	17050
15	25	23200
25	13	12452
13	4	14272
4	17	5422
17	12	6303
12	24	1644
24	3	15197
3	8	8395
8	27	10294
27	1	6275
1	29	6204
29	5	7944
5	14	10550
14	20	19591
20	22	92634
22	9	54017
9	16	52694
16	2	183239
2	26	4945
26	11	88213
11	7	61690
7	6	103045
6	28	245391
28	0	282275
